NAME : rnd97_20.tsp
TYPE : TSP
DIMENSION : 20
EDGE_WEIGHT_TYPE : EUC_2D
NODE_COORD_SECTION
0 175 319
1 266 138
2 980 139
3 671 918
4 753 409
5 854 425
6 442 284
7 305 136
8 927 147
9 453 253
10 773 97
11 434 62
12 500 942
13 126 125
14 567 873
15 150 495
16 654 130
17 210 195
18 611 175
19 869 282
